%SETS
JOBS     = 1..5;
MACHINES = 1..2;
SPEED    = 1;

time               = array3d(JOBS,MACHINES,1..SPEED,[64, 59, 48, 68, 49, 90, 96, 44, 81, 57]);
energy             = array3d(JOBS,MACHINES,1..SPEED,[52, 55, 61, 50, 61, 40, 38, 64, 44, 56]);
precedence         = array2d(JOBS,MACHINES,[1,0,0,1,0,1,0,1,0,1]);